100 74647

 559 570
39 112
285 985
822 313
602 998
597 461
785 708
336 887
188 462
671 865
243 92
73 52
479 805
974 520
561 812
101 98
514 236
756 901
176 374
238 581
910 927
59 557
865 649
99 234
954 32
871 289
954 638
495 579
947 542
980 114
514 204
755 29
297 643
211 474
123 697
229 253
594 798
656 905
388 922
140 386
541 62
391 515
270 430
759 580
12 537
867 691
389 141
337 743
506 300
106 675
32 311
74 471
171 393
849 642
69 445
813 758
362 809
649 172
433 576
929 31
996 47
100 130
658 352
9 978
574 845
697 622
29 581
893 58
114 106
462 812
921 330
143 768
390 824
632 683
682 383
157 985
335 162
861 997
260 286
82 71
754 767
441 454
945 886
172 567
231 835
720 397
75 515
270 26
899 313
626 126
62 408
874 565
320 198
102 811
429 188
874 698
722 817
954 810
255 716
532 484
